p edge 158 189
e 1 2
e 2 3
e 2 13
e 3 4
e 4 117
e 4 139
e 4 121
e 5 6
e 5 7
e 6 8
e 6 9
e 7 121
e 8 10
e 9 11
e 10 66
e 11 12
e 12 68
e 12 152
e 12 158
e 13 14
e 13 15
e 13 16
e 13 17
e 14 15
e 15 18
e 15 19
e 16 118
e 16 99
e 17 39
e 17 137
e 18 33
e 19 116
e 19 121
e 20 21
e 20 22
e 20 23
e 21 24
e 21 23
e 22 25
e 23 28
e 23 30
e 23 31
e 24 29
e 25 26
e 26 45
e 26 46
e 27 28
e 27 29
e 30 32
e 31 99
e 32 119
e 32 99
e 33 34
e 34 100
e 34 102
e 34 69
e 34 111
e 34 112
e 35 36
e 35 37
e 35 38
e 36 38
e 37 44
e 39 40
e 39 41
e 40 43
e 42 43
e 43 97
e 43 128
e 44 76
e 45 47
e 45 48
e 46 73
e 46 145
e 47 48
e 48 50
e 49 50
e 49 51
e 50 52
e 50 53
e 51 54
e 52 55
e 53 57
e 54 129
e 54 137
e 55 56
e 56 57
e 56 76
e 58 59
e 59 63
e 60 61
e 60 62
e 61 65
e 62 65
e 62 66
e 62 67
e 63 64
e 64 122
e 67 147
e 68 69
e 69 148
e 70 71
e 70 72
e 70 73
e 70 74
e 71 75
e 72 80
e 72 82
e 72 83
e 73 143
e 74 145
e 75 156
e 76 77
e 76 78
e 77 79
e 78 81
e 80 81
e 82 144
e 83 114
e 83 144
e 84 85
e 84 86
e 85 157
e 86 87
e 86 158
e 87 88
e 88 111
e 88 112
e 88 157
e 89 90
e 89 91
e 90 113
e 90 114
e 91 92
e 91 115
e 92 93
e 93 94
e 94 95
e 95 133
e 96 97
e 96 98
e 97 127
e 97 129
e 98 129
e 99 138
e 100 101
e 101 105
e 101 109
e 102 103
e 103 104
e 105 106
e 105 107
e 106 107
e 108 109
e 108 110
e 109 130
e 110 132
e 113 133
e 114 144
e 115 134
e 116 117
e 118 119
e 118 120
e 120 139
e 121 146
e 122 152
e 123 124
e 123 125
e 124 126
e 125 130
e 125 131
e 126 141
e 127 128
e 131 132
e 132 140
e 134 142
e 135 136
e 135 137
e 136 138
e 140 141
e 142 153
e 143 144
e 146 150
e 147 148
e 147 149
e 149 151
e 150 151
e 153 154
e 154 155
l 18
